NAME : in_house_9_7
TYPE : TSP
DIMENSION : 9
EDGE_WEIGHT_TYPE : EXPLICIT
EDGE_WEIGHT_FORMAT : UPPER_ROW
COMMENT : INVERSION_SHIFT=3
EDGE_WEIGHT_SECTION
6
52
14
4
3
53
26
44
35
68
55
15
60
34
47
75
14
40
78
15
36
3
68
6
39
7
17
26
44
75
7
30
47
40
52
32
